POSCAR file H2O 1                       
   1.0000000000000000     
    12.4000000000000004    0.0000000000000000    0.0000000000000000
     0.0000000000000000   12.4000000000000004    0.0000000000000000
     0.0000000000000000    0.0000000000000000   12.4000000000000004
   H    O 
   128    64
Direct
  0.6045516407075374  0.2010390269384636  0.8501910617818581
  0.6780999448282508  0.1104582954092161  0.9140208807880086
  0.8482552790006884  0.8534999336491402  0.0613988305280864
  0.8352138041249592  0.8645027430963131  0.1922482183259946
  0.1423705843855493  0.1387518193412675  0.5973825530184554
  0.1046010471645493  0.2487917536582575  0.5264020423528453
  0.3803533068336022  0.3982142750840432  0.0095839790961839
  0.2769701341284087  0.3767419211440116  0.9403665054637692
  0.2702263038479831  0.2883998438244821  0.7768853969362776
  0.1608406477224325  0.2329468888509607  0.8442436928666819
  0.0924409685794635  0.9212001423250495  0.9032762365162970
  0.1990099822530330  0.9347044268631932  0.8260984140413961
  0.6407657298951389  0.9399144166213026  0.3839695411709257
  0.6192372005709781  0.8444509267151653  0.4561599697102602
  0.8053490520312427  0.3092818775681785  0.0586682737991039
  0.7078996913422926  0.2623888686207372  0.9879561208991857
  0.8922346372649576  0.7426538733502428  0.5226500265967581
  0.0025032949304181  0.7413213567040919  0.4607452570223574
  0.1235300236796070  0.5590142779013870  0.9316093749965096
  0.2368216460250824  0.5262780609960968  0.9639926979348936
 -0.0018737551602156  0.3489663337567684  1.0124428074705927
  0.9928724728749433  0.2746260704409740  0.1148070329674438
  0.4428227468087330  0.6052984842320204  0.2091319704379675
  0.5611715283871357  0.6356681429292818  0.1928098766149338
  0.2878591592643213  0.4543138088364544  0.2497873546969418
  0.3947394769395575  0.4453802182275304  0.1982223258427634
  0.1830142846562115  0.5760479581969968  0.6330918527249877
  0.0672134076785487  0.5254250398071975  0.6343608297367724
  0.6600883352703804  0.0974464564039354  0.6142926775273969
  0.5464820326974994  0.0377935209667592  0.6041131145058046
  0.6731302153288649  0.3421777033260229  0.2670532862253114
  0.6747240863568529  0.3972149369786313  0.3760288781378075
  0.7773108930976700  0.1898354555310594  0.8272146118358844
  0.9095197569907992  0.1628432192930558  0.8205032621852099
  0.0682891892164223  0.7736880661337965  0.7765418924492148
  0.0483707031502098  0.6463139217653698  0.7413869280058054
  0.6125384426691414  0.7899825152804594  0.7581345743265349
  0.5284782468617414  0.6959994627477379  0.7892345575029681
  0.6396938584463115  0.6128821206602160 -0.0572257065005694
  0.5356335570442841  0.6417360188696188  0.0112793301544667
  0.7431817374138834  0.8047914021321944  0.3157492114467391
  0.8530607422927352  0.7394359636453633  0.3305497004360533
  0.4846928352418663  0.7179357202578655  0.4966783502260870
  0.5275361287363401  0.7674062005141480  0.6081663629377261
  0.8123786956513616  0.1771812054332520  0.6586667647182760
  0.8023575370228918  0.1174192070361571  0.5414776438900504
  0.9396153826202188  0.4453694630418132  0.5241109363006844
  0.9355432286653805  0.5704802949479894  0.5203262561897267
 -0.1078644733298986  0.7436886380296516  0.8928433128858728
  0.8303818817117750  0.6725638511872560  0.9677078690106118
  0.3203291021595349  0.1798818461325812 -0.0792949343840459
  0.3009973882756676  0.1003082852126868  0.0097127847854086
  0.7867409593500191  0.1736505357807747  0.2738059670220340
  0.7260061885505188  0.2131724356862484  0.1679699609526443
  0.4461917438572137  0.0005661574598499 -0.0078646125951226
  0.4878567352120193  0.9103631088696017  0.0573751255445738
  0.8640207055790430  0.3627659323854595  0.7676095923568322
  0.8986726875049718  0.4715821764465701  0.6905133872388857
  0.0554506408017234  0.0857566380415931  0.8874727989665396
  0.0132762492566780  0.1929250721720202  0.9445421691829935
  0.5523993710705190  0.4401357101326048  0.5976782838191624
  0.6177174073784389  0.5409586750268401  0.6616058483492419
  0.5228575626980420  0.9333019934540144  0.2311007962051040
  0.4752535888122341  0.8140072889424975  0.2011564698699234
  0.3331892993254439  0.6338439659729408  0.5366289138569620
  0.2428267165800224  0.7202752418666565  0.5444984603579771
 -0.0140816224564024  0.3462534837126164  0.4141374450410255
  0.9393120220367324  0.2426960553195462  0.4832629359361914
  0.7635476419236062  0.3190366323410846  0.5238076631464528
  0.7188541497581177  0.4462333431504513  0.5300791382075842
  0.2408308699432765  0.0315704102673383  0.1669357209737277
  0.1392242956108507 -0.0049664682883241  0.0996474502889570
  0.4271810866110049  0.8935694119628500  0.5648618543655295
  0.3698193101114278  0.9628211949970921  0.6570437995228460
  0.1331681936775857  0.6539487629404869  0.0640225341908716
  0.1255828002309300  0.6360645008109631  0.1865430353829876
  0.7703204970725736  0.6124021656728146  0.8071560155764084
  0.7809270686535225  0.5036488963938308  0.8531500197728197
  0.9977028699573190  0.9045203940823228  1.0912359857425493
  0.0853692822651111  0.8191620947910846  1.0751462078718437
  0.3939446642841144  0.3509406997934246  0.6229282887814719
  0.4859777471438648  0.2799863924645075  0.6660146530055536
  0.3161564994027899  0.6695533463152828  0.7288816527494631
  0.2794990008400309  0.6601706758922821  0.8493353066452975
  0.5340552560645833  0.0917176210253682  0.3243356670766152
  0.6416686675892680  0.0874113217391908  0.2711139724295049
  0.5162286186268275  0.4751063470735749  0.9749428034401689
  0.5873213113907588  0.3759495852818088  1.0324235755430833
  0.9507007856023812  0.4641334506540460  0.2224708903344179
  0.8624586829507416  0.4529957201205844  0.3194535290966755
  0.2304650428213010  0.2934182220544606  0.6224218175597951
  0.2388790645712972  0.4209976314827191  0.6538496187112529
  0.1847716069491230  0.4421897572977700  0.1021641438217269
  0.1204914813824451  0.3642505623192919  0.1820250407945438
  0.3499692861924713  0.1829057366502367  0.3770177054178200
  0.2471025682546643  0.1692520118850716  0.4461323398316102
  0.1444936826924670  0.9548094411242383  0.5681369543667319
  0.0877472112395172 -0.0183313612629656  0.6835003965815540
  0.5379218494218033  0.1542785890077649  0.7272991841800607
  0.4513899249757130  0.1820501436117148  0.8296001230468084
  0.5090605151333871  0.2846493122755112  0.3500914761700147
  0.4896918102848654  0.2594894876204301  0.4738291355581559
  0.2228380055305207  0.8960529054162710  0.4158101477940555
  0.2810742605521668  0.9084125541722800  0.5214988990781135
  0.3546891034411305  0.8281102503036215  0.7943295396683701
  0.3793268225097071  0.9345468274825698  0.8609343269734882
  0.9758373936514650  1.0121060438444889  0.5317570190695813
  0.8754933557035854  0.9431923332178407  0.5026729431091990
  0.5086318414121185  0.5596592910068866  0.5239046617225813
  0.4420658405044856  0.5404388280734119  0.4096437027869725
  0.9786962048404434  0.1739885814700057  0.2938000603794974
  0.9092754660023570  0.0917993821405021  0.3721527137010849
  0.8211948469649006  0.8468651310803001  0.7011781363687464
  0.9348462573985482  0.7652859316354477  0.7007750638410201
 -0.0393098920934979  0.5028233585117664  1.0019298127989618
 -0.0257881254458876  0.4799218669359576  0.8789169370970467
  0.6756591965904316  0.5211645273959843  0.2402453590506014
  0.7182511297585380  0.6431722964139664  0.2545545739338365
  0.7198828086157815  0.9191949778009270  0.8524954846360940
  0.6826927418118358  0.9439724790887796  0.7358506567996085
  0.3054205777228497  0.0139027296384845  0.3331091517000808
  0.3626380045879247  0.9195485665625784  0.2601249032857532
  0.6052940691418588 -0.0151197605777673  0.9837247428661577
  0.7317553511028411  0.9954215413388002  0.0308575246260359
  0.9765611347969665  0.5933490833510948  0.1152951362779718
  0.8477019209086071  0.5763253657948733  1.1367405095928931
  0.1544791780841251  0.1993742385963446  0.2844723731410685
  0.1149731391007358  0.1534173884717855  0.1724761218360767
  0.6637042258607060  0.1887650766698224  0.9000783392366226
  0.8602476438240166  0.9022505336291734  0.1256109530415198
  0.1670947558553375  0.2009401603457087  0.5544878358492685
  0.3037099593736968  0.4200614832637542  0.0020280799351432
  0.2376769190316667  0.2567634697592611  0.8444580568574834
  0.1213275424424244  0.9521792369406051  0.8360335056107867
  0.6804859419351993  0.8818701880512334  0.4183155605392965
  0.7275814023672300  0.2977835009089103  0.0567116335035136
  0.9263069707778908  0.7140627219438933  0.4583904317128283
  0.1921935711928442  0.5905436007123067  0.9487141531512560
  0.9613143286784036  0.2832102634001581  0.0443966499724680
  0.4859902286519558  0.6563448667347409  0.1687513072441255
  0.3613167956655897  0.4867807776406204  0.2587142972510205
  0.1295820305757316  0.5375161483831810  0.6821864670056399
  0.5958761536386191  0.0720697658478908  0.6566032658294224
  0.6442708879313171  0.4034049417819607  0.3033241885425743
  0.8451608598808120  0.1994745722752366  0.7902563697477114
  0.0185745595498372  0.7100530562916152  0.7801125119180541
  0.5525651688471745  0.7466379503150146  0.7350856090659662
  0.5569222081245526  0.6081637271492667 -0.0565889065231108
  0.7971623698001462  0.7543116284476515  0.2759953781869809
  0.5027107792781810  0.7875487610741199  0.5299448171491168
  0.7680080258796372  0.1726440035333317  0.5897087778224096
  0.9571862449929386  0.5108945481018091  0.5692255637779822
  0.8709334334852707  0.7426900969360578  0.9661515031425305
  0.3554932431465651  0.1201207316348556 -0.0438877256237704
  0.7092237739702448  0.1875871407232835  0.2424905744021207
  0.4929375081168896  0.9397356442919190 -0.0162561199978353
  0.8780413781728607  0.4416700442264114  0.7644294034106742
  0.0367307840969796  0.1603538086683699  0.8762843568694789
  0.5949053951362218  0.5053575241733886  0.5915900449246431
  0.4763568663128301  0.8906348915165347  0.1827706901029824
  0.2780505805811128  0.6612233343778395  0.5862540828693428
  0.9916302830452585  0.3023358493137069  0.4838875241779892
  0.7657803161257606  0.3940557947309711  0.4916280513323421
  0.1971037969246028  0.0533994472658093  0.1082543295891462
  0.3920365451008906  0.9633625105160464  0.5787796163037991
  0.0931392244855632  0.6791804385863177  0.1307348144475645
  0.7539445156712034  0.5757682035087371  0.8757691668629302
  0.0620985743270476  0.8917989568180239  1.0492621413128156
  0.4741741798971674  0.3356576615639846  0.6078643876654480
  0.3384780180405058  0.6883908700412343  0.8032564626037125
  0.5800515250584157  1.0357125927729813  0.2948085665980087
  0.5166497495530161  0.4007324899024380  1.0062584588305261
  0.9401219581265847  0.4406246554949269  0.2982718949980375
  0.2790784743685971  0.3520249473915628  0.6546361350646310
  0.1380644736214900  0.4382595592281769  0.1645393568957182
  0.2718955160481153  0.1676719024159145  0.3711678301878576
  0.0916024229805014  1.0032113165529910  0.6096451353561968
  0.5060854283403755  0.2113533119147233  0.7772738301095831
  0.4926268264119189  0.2241930091386531  0.3978811654670054
  0.2145118824125063  0.8666626675301549  0.4892125458802781
  0.3338543372585992  0.9021317449360456  0.8049636064162683
  0.9073026840784297  1.0122936344747020  0.4872728853129443
  0.4453053614646255  0.5876602459459356  0.4752602167202858
  0.9038671612565483  0.1552093052393793  0.3280612256610139
  0.8734311991030186  0.8003920845092903  0.6538983692062424
  0.0096835885833902  0.4660402986149078  0.9510755029559558
  0.6888938376389712  0.5905017790145981  0.2041446297785660
  0.7213620333390335  0.8889258095787945  0.7797304147383101
  0.2927705298311842  0.9521621913221724  0.2844965706990267
  0.6847844820429417  0.0022973139229220  0.9698459574953242
  0.9141492898727467  0.5398991296608351  0.1213387924280519
  0.0962435892762003  0.2044700642305405  0.2311785582660438
