POSCAR file H2O
1.0
  12.40000000   0.00000000   0.00000000 
   0.00000000  12.40000000   0.00000000 
   0.00000000   0.00000000  12.40000000 
H O
   129    64 
Cartesian
   8.46777000  11.06270000   5.51820000 
   6.37449000   4.69319000   8.55943000 
   0.40574600  11.92840000   0.99895700 
   9.78468000   7.23564000   1.21314000 
   9.68523000   3.77816000   4.59090000 
   1.07369000  11.04890000   5.13394000 
   5.82769000   0.33327600   9.38639000 
   9.21363000   7.07039000   9.10590000 
   5.71647000   8.11581000   8.05730000 
  11.39160000   1.30313000   2.96088000 
   9.87657000   3.66945000   6.63954000 
   4.85133000   3.60472000   4.55302000 
   2.04395000   1.39273000   5.41334000 
  10.61540000   8.40718000   4.68703000 
   9.51549000  10.83430000  10.09730000 
   4.20241000   7.06345000   2.66919000 
   8.57886000   7.52394000   4.66402000 
   0.53986800   7.26072000   2.59743000 
   6.32850000   8.68325000   2.61909000 
   5.63076000   6.08821000   5.17896000 
  10.93250000  11.15720000   0.72778300 
  11.64920000   0.32297100   5.89126000 
   5.88888000   8.39560000  10.06900000 
   0.73552800   4.60784000   2.85967000 
   2.81987000   5.01851000   2.31279000 
   4.83547000   8.88562000   5.77149000 
   2.62155000  12.39570000   4.11492000 
   8.33173000   9.90823000   8.51118000 
   7.29270000   4.76524000   0.13071600 
   8.46110000   3.13114000   9.57476000 
  10.33530000   9.69856000   0.74574800 
   7.33757000  12.13650000   3.92245000 
   9.12289000   1.68004000   0.82061000 
   1.57536000   7.22099000   6.22738000 
   6.08547000   6.47293000   8.34091000 
   9.36442000   3.97845000   8.13892000 
   0.93742400  12.05340000   7.02170000 
   4.89789000   4.94352000   8.09034000 
   7.97394000   8.42835000   8.68903000 
   3.45791000  10.20580000   9.51463000 
   3.15720000   0.07090060   0.45784400 
   5.63417000  11.00600000   4.53506000 
   7.59025000   1.69164000   2.74188000 
   3.27808000   1.15483000   7.22099000 
   4.21306000  11.96480000   2.45782000 
  11.08150000   0.84166400   9.22813000 
   1.02746000   6.10188000   5.17871000 
  10.48500000   2.18500000   8.98241000 
   6.17966000  11.87220000   7.75981000 
   1.08195000   1.24776000   4.33595000 
   1.57158000   3.09041000   0.56102600 
   0.07288510  11.90700000  11.96390000 
   6.85591000   1.60986000   9.23396000 
   7.43169000  11.33450000   7.06693000 
  11.94970000  12.30770000   3.53835000 
  11.35880000   3.19612000   1.41461000 
  10.19000000  11.38080000  11.37930000 
   7.76318000   6.88165000   0.84721100 
   0.27118600   8.84761000  10.86980000 
   1.04409000  11.15350000   9.45846000 
   3.90782000   6.04895000  10.29400000 
   4.29265000   4.65451000   2.66953000 
  10.53510000   9.14452000   8.96437000 
   1.88195000  12.27310000  11.95070000 
   0.66382900   4.17503000   9.70716000 
   3.54093000   7.89118000   0.12731000 
   3.91407000   3.06714000   0.15753100 
  12.03820000  11.44820000   9.87489000 
   9.89637000   2.25204000   4.84023000 
   5.21738000   0.73499000   2.02164000 
   6.98874000   5.87938000   1.72103000 
   2.82141000   8.97040000  10.26640000 
   8.58595000   5.36764000   2.88810000 
  10.07040000   4.91779000   9.95784000 
  12.13190000  10.18930000   5.39701000 
   0.73298300   5.42735000   1.51187000 
   0.07036610   5.72484000   8.43124000 
  10.80670000   0.89868800   7.19160000 
   7.83395000   2.59469000   0.58517100 
   8.33364000   8.67299000   3.73598000 
   6.07596000   3.83294000  12.14180000 
   0.64095100   9.94846000   2.50885000 
   4.30908000   6.55792000   0.39967600 
   2.78887000   5.13508000   9.79673000 
   2.65866000   8.18441000   8.10718000 
   6.39506000   2.15976000   3.51462000 
   4.16722000   4.52819000   0.59225100 
   1.91624000   4.32364000   7.43638000 
  12.21650000   6.34705000  11.94680000 
  11.67430000   7.85822000  10.26300000 
   1.16538000   7.78894000   3.87484000 
   4.08919000  11.60920000  11.03640000 
   0.56034500   1.92662000   0.18860000 
  11.02660000   7.85161000   0.31546400 
   6.07222000   4.94681000   6.17014000 
   7.52866000   8.60515000  11.74140000 
   7.02430000   9.79487000   1.73619000 
   5.46587000   8.54457000  11.54390000 
   1.80126000   8.95947000   0.36389900 
   0.77199700   3.62571000   4.99146000 
   7.27271000   3.57783000  10.42700000 
   8.69401000   8.68496000   0.33760400 
   0.98656700   0.62951800   8.33840000 
   2.94768000   6.69729000   8.01112000 
   0.74737900   5.17711000  11.53940000 
  10.11930000  11.96940000   6.23143000 
   3.42818000  11.14850000   4.66005000 
   5.44616000  10.94100000   6.07971000 
   7.54568000  10.56280000   3.45171000 
   8.37154000  11.47230000  12.28950000 
   1.52694000  11.13870000   3.04469000 
   3.95854000   7.50761000   6.14991000 
  11.45300000   8.90266000   7.74115000 
   7.52530000   0.35586600  12.23860000 
   2.75720000  10.20690000  12.27210000 
   9.74173000  10.09670000   6.00867000 
  11.66420000   4.38396000   7.81769000 
   4.67614000   8.29788000   3.57976000 
   3.77310000   2.64512000   4.00625000 
   8.83569000   6.84737000  10.57810000 
   5.16341000  10.64310000  10.70540000 
  10.68270000   3.81703000  10.87660000 
   4.67865000   1.75220000   7.51047000 
   7.73728000   4.54139000   3.89077000 
  11.74760000   8.15328000   5.75724000 
  11.63810000   3.95095000   4.58257000 
   1.44102000   3.04424000  10.63440000 
  10.14870000   2.89589000   2.32407000 
   3.11993000   3.40983000   6.93018000 
   2.76899000   4.29455000   6.97598000 
   7.52675000  11.85450000  11.94440000 
  11.89050000   0.90500700   3.75866000 
   0.15071100   4.24118000   4.48368000 
   3.71596000   5.29630000   2.19486000 
   8.64464000   4.72286000   3.67467000 
   8.15418000   1.74685000   0.91968500 
   1.21216000   0.47938100   7.44620000 
   4.54658000  11.27100000  10.26220000 
   5.92118000   5.13261000   5.17383000 
   6.20319000   1.02200000   8.77251000 
  11.49880000   8.85776000   8.70836000 
   1.01783000   8.03879000   2.95928000 
   4.64305000   3.10581000   3.75569000 
   6.98467000   1.45145000   3.48854000 
  12.15950000  12.36030000   0.37550100 
   2.79127000   9.42316000   9.41463000 
   1.00582000   6.99976000   5.48272000 
   2.59695000   7.38088000   7.49358000 
   0.15250000   4.85015000   7.98019000 
   7.15534000   9.09555000   2.40416000 
  10.38930000   3.99766000   9.97758000 
   8.71281000   9.04258000   8.74465000 
  11.13950000   8.80277000   5.40278000 
  10.91860000   1.47345000   8.51102000 
   1.25424000   4.86402000   2.03930000 
   7.84714000   6.03022000   1.30092000 
   2.81020000  11.43660000   3.93714000 
   1.40679000   2.35812000  12.33460000 
   4.15267000   7.25815000  12.11240000 
   4.89073000   7.81498000   2.72556000 
   7.53277000   3.39396000   9.47978000 
   9.25493000  10.89070000   6.21204000 
   0.77610000  10.90790000   2.40573000 
   9.93176000   4.28816000   7.40219000 
  10.19320000  11.50410000  10.36160000 
   1.41073000   3.98222000  10.35900000 
   2.72044000  11.84630000  12.23560000 
  10.64440000   7.77369000   1.21912000 
   4.96050000  10.73480000   5.16655000 
  10.17070000  10.62160000   0.43560200 
   4.64203000   0.06483940   1.70573000 
   7.04108000   3.93649000  12.09010000 
   2.63514000   9.17934000  12.36360000 
   2.00633000   1.53935000   4.49065000 
   7.45996000  11.18080000   4.19763000 
   3.92901000   1.79032000   6.97373000 
  12.19420000   8.02142000  11.10770000 
   9.24391000   6.45074000   9.85215000 
   3.49997000   5.73193000   9.47920000 
   0.50252200  11.77570000  10.09290000 
  10.79140000   2.47963000   1.69489000 
   4.72331000   7.90579000   5.64960000 
   5.79387000   4.98423000   7.77953000 
   8.09885000   8.06920000  12.28570000 
   6.16684000   7.49291000   8.66970000 
  10.78010000   0.41496900   6.26565000 
   4.29478000   3.91237000  12.19340000 
   0.18608100  11.12320000   5.56262000 
   5.92594000   9.00619000  10.86330000 
  10.30380000   3.11603000   4.84943000 
   6.49501000  11.11080000   7.29724000 
   9.05664000   8.14646000   4.14016000 
   0.09017530   5.49944000  12.14510000 
