POSCAR file H2O
1.0
  12.40000000   0.00000000   0.00000000 
   0.00000000  12.40000000   0.00000000 
   0.00000000   0.00000000  12.40000000 
H O
   127    64 
Cartesian
   8.85267000   7.20419000  11.95580000 
   8.69846000   5.97767000   4.09334000 
   8.44789000   3.68974000  10.22130000 
   5.99783000   4.09562000   1.24539000 
   9.29814000   5.49531000  10.91820000 
   8.14750000   6.51077000   6.73454000 
   0.68126300   7.15451000   4.02477000 
   5.46260000  10.15950000   2.11324000 
  12.05050000  11.74360000  11.42740000 
   4.25911000   3.42319000   4.34198000 
   5.00869000   0.96134300   3.30852000 
  10.93040000   5.66229000   3.08561000 
   4.75026000  12.16170000  10.19210000 
   0.80358000   8.35584000   9.20655000 
   7.92298000  12.09090000   1.44394000 
   1.61764000  11.44810000   0.49808200 
   5.62227000   6.40082000   9.17893000 
   3.99383000   7.20448000   4.18837000 
  10.59460000   9.87328000  10.12540000 
   3.51370000   7.14392000   2.14400000 
   6.34990000   3.79107000   5.49815000 
   0.05750440   7.75756000   0.81709500 
  10.30830000   6.69006000   2.18222000 
   6.35624000   0.86788100   4.12641000 
   9.49501000  10.60820000   5.76540000 
   6.18875000   2.37503000  11.92660000 
  11.24580000   9.22425000   2.28975000 
   0.82502800   4.70701000  10.69600000 
   7.00944000   0.86376100   6.24251000 
   8.41881000   3.76331000   1.89354000 
  12.10450000   3.53165000   8.00187000 
  10.25520000   7.70694000  10.03530000 
   2.08192000   3.83952000   9.15705000 
   7.36268000   7.55768000   4.40201000 
   3.25504000   3.58023000   3.19562000 
  10.63430000   0.75839400   8.06528000 
   7.95289000  12.17350000  10.42630000 
   1.17408000   0.49031800   9.24748000 
  11.37070000   2.47308000   2.20490000 
  12.17160000   7.66529000   7.10173000 
   8.92538000   7.33300000   7.90118000 
   8.34137000   0.33365600   5.52740000 
   7.69863000   8.84754000   5.09137000 
   2.35219000   7.75607000   0.15301100 
  11.94460000   3.12212000   3.50021000 
   0.92648500   8.65459000  10.74830000 
   3.94841000   8.25105000   6.30262000 
   1.25645000  12.14400000   7.87130000 
   5.23095000   1.17494000  10.33840000 
   5.64519000   6.36084000   1.49536000 
   2.54006000   5.42448000   7.48650000 
   0.04677720   8.46021000   3.99671000 
   3.05723000   5.18068000  11.58320000 
   7.75903000   5.18280000   4.84013000 
   2.08049000   5.27881000   2.63199000 
   4.90432000   8.51239000   0.80047300 
   0.98922100  11.08140000   5.73171000 
   8.83475000   0.29445200   2.64388000 
   9.29682000   9.89511000   1.79476000 
   8.63589000   1.13562000  10.38990000 
   5.66420000   4.49846000   7.62880000 
   6.19276000  11.10030000  11.28650000 
   7.08066000   8.30305000   8.95987000 
  11.33930000   7.57340000  11.01790000 
  11.95720000   0.95674700  12.08150000 
   2.36025000  11.27460000   1.98002000 
   8.53634000   4.70372000  12.13530000 
  10.34010000   4.09276000   7.38044000 
  11.13110000   5.05616000   5.14014000 
   5.78653000   0.00689519   1.47440000 
   2.29633000   9.28922000   0.24860500 
   6.89873000   1.02098000  11.82850000 
   2.11551000   3.98160000   7.31566000 
   4.12729000   5.85021000  12.36960000 
   1.01923000  11.65970000   4.00472000 
   6.79251000   5.34021000   8.90294000 
   8.83499000   8.92043000   3.06927000 
   4.58478000   8.33199000   2.55918000 
   0.64531900   2.32026000   7.75392000 
   7.67368000   2.57680000   9.23882000 
   9.82732000  12.23870000   8.99330000 
  10.46410000   9.14912000   8.37364000 
  11.55650000   3.40333000  12.07460000 
   0.56906200   8.74126000   6.46625000 
   6.73226000   6.23889000   0.24693000 
  11.22210000   6.83524000   5.66162000 
   8.37953000   8.86100000   9.32888000 
   5.24541000  10.25040000   7.00390000 
   1.29096000   6.42274000   2.09886000 
   3.32620000   6.24306000   5.11578000 
   3.90398000   7.13666000  10.47890000 
   7.23552000   2.85007000   4.50287000 
  11.84800000   5.33559000  10.42170000 
   0.99612400   2.82825000   1.89696000 
   5.04160000   8.18345000  10.43210000 
   8.42409000   8.15609000   0.52486100 
   4.52098000  11.66080000   0.76621100 
   2.70502000  10.13200000   6.73213000 
   2.48663000   3.29244000  10.62790000 
   0.09603600   4.40972000   5.32908000 
   3.29512000  12.20590000   3.88574000 
  10.11460000  11.80740000   6.57473000 
   6.07658000   2.68220000   2.13706000 
   4.75154000  11.39760000   3.95484000 
   5.96948000  11.29770000   6.12699000 
   3.18827000   1.25289000  10.93980000 
   9.78524000   3.44693000   8.73044000 
   9.99102000  11.07960000  10.86880000 
  12.29160000   6.24105000   0.28766100 
   6.11414000   2.24186000   7.61638000 
   9.48355000   4.84955000   1.80146000 
   8.82276000   9.19068000   7.36481000 
   5.87618000   0.83918100   8.05616000 
   1.11024000   0.51030300   3.07665000 
   4.44342000   3.95359000   6.93628000 
   1.42694000   1.19452000  11.16180000 
   4.06038000   8.55858000   7.85405000 
   3.19650000  11.59480000   6.26725000 
  10.22410000   6.39554000   6.83376000 
   6.74447000  10.49680000   9.95740000 
   6.07470000   9.55961000   3.41669000 
  10.27360000   2.98387000   0.30888700 
   7.76453000  10.15000000   6.96018000 
  11.80550000  11.23320000   5.52063000 
   6.25717000   8.36841000  12.36340000 
   1.86036000   2.95250000   0.72082800 
   0.04559520  10.23500000   2.75518000 
   6.02140000   5.77842000   0.84766100 
   6.57270000   1.38933000   7.84563000 
   0.78913900   0.48553700   8.32053000 
  10.45310000   7.23231000  10.89640000 
  12.20970000   9.37916000   2.35379000 
   8.79293000  12.17840000   1.79586000 
   8.74528000   6.45709000   7.54692000 
   0.68617800   3.22622000   7.79414000 
   9.69632000   8.75093000   8.82882000 
   2.83644000   4.58448000   7.06458000 
   1.64549000  12.14780000   3.38046000 
   3.33096000   6.09731000  11.86190000 
   4.20406000  12.13350000   4.37358000 
   4.00171000   8.94986000   6.98378000 
   4.59920000   7.57289000   9.81841000 
   0.02336650   5.06396000  11.16080000 
   3.54767000   3.94373000   4.03131000 
   8.03100000   7.43128000   0.03340610 
   2.41040000  11.04900000   0.99678700 
  11.24910000   6.47247000   6.58461000 
  10.90590000  10.56250000  10.71630000 
   8.49088000   3.01515000   9.41545000 
   2.00378000   6.22088000   2.75369000 
   7.36406000   9.06119000   9.52615000 
   5.39654000   3.74257000   6.99219000 
   5.91838000   5.55769000   8.61181000 
   8.41313000   9.51070000   6.55112000 
   0.31861800   8.56856000  10.00930000 
   1.80540000   3.27299000   1.58202000 
   9.38430000   9.04616000   2.28453000 
   2.50660000  11.07480000   6.77753000 
   8.61939000   4.82288000  11.18120000 
   6.33973000  11.29470000  10.36480000 
  12.30610000   7.61769000   4.40358000 
   5.96840000  10.94850000   7.04321000 
   8.93925000   4.23665000   1.24236000 
   5.85080000   3.10153000   1.28964000 
  10.61140000   3.63380000   8.16175000 
   9.99042000  11.42230000   5.59262000 
   5.47093000  11.78460000   0.75887500 
   5.44910000   8.93359000   0.04831650 
  11.96240000   2.27456000   2.90732000 
   2.44932000   4.04728000  10.08320000 
   7.38258000   8.56774000   4.21651000 
   0.24620300   8.51490000   7.33434000 
   6.98294000   3.75465000   4.72631000 
  11.25640000   2.74484000   0.26408200 
  11.69990000   4.34106000   4.77837000 
   8.07455000   6.08990000   4.76998000 
   8.68154000   0.27087200  10.74300000 
   3.98279000   6.93069000   5.11063000 
  10.05230000   5.95971000   2.78438000 
  10.07190000  12.34820000   8.05762000 
  12.27730000   6.85563000   1.10859000 
   4.38868000   7.57206000   1.96290000 
   5.94306000   1.24574000   3.28877000 
   0.10621600   0.15320900  11.78140000 
   4.46994000   0.66804100   9.98428000 
   2.24637000   1.67183000  11.25430000 
   6.48913000   1.67750000  11.34720000 
   0.29527900  10.92570000   5.09794000 
   5.21918000   9.83298000   2.99917000 
   7.47400000   0.73395000   5.38458000 
   1.83257000   8.54952000  12.20620000 
