variable        NSTEPS          equal 10000000
variable        THERMO_FREQ     equal 1000
variable        DUMP_FREQ       equal 1000
variable        TEMP            equal 300.0000
#variable       PRES            equal 1.000000
variable        TAU_T           equal 0.100000
#variable       TAU_P           equal 1.000000

echo			screen

units           metal
boundary        p p p
atom_style      atomic

read_data		Sphere25_10H.data
#read_restart	200000.comp

neighbor        1.0 bin

mass            1 1.008
mass            2 15.999

pair_style      deepmd frozen_model.pb 
pair_coeff      * *

thermo_style    custom step temp density pe ke etotal press vol lx ly lz xy xz yz
thermo          ${THERMO_FREQ}

velocity 		all create ${TEMP} 20220625 rot yes mom yes dist gaussian

#fix            1 all npt temp ${TEMP} ${TEMP} ${TAU_T} iso ${PRES} ${PRES} ${TAU_P}
fix             1 all nvt temp ${TEMP} ${TEMP} ${TAU_T}

dump            slab1  all custom ${DUMP_FREQ} slab_1k.lammpstrj id type x y z vx vy vz
dump            slab2  all custom 10000        slab_1w.lammpstrj id type x y z vx vy vz
dump            slab3  all custom 50000        slab_5w.lammpstrj id type x y z vx vy vz


restart			1000000 restart.*.cont

timestep        0.001
#reset_timestep 200000
run             ${NSTEPS}

write_restart	*.comp
write_data      *.data