POSCAR file H2O
1.0
  12.40000000   0.00000000   0.00000000 
   0.00000000  12.40000000   0.00000000 
   0.00000000   0.00000000  12.40000000 
H O
   130    64 
Cartesian
  10.61460000   3.86846000   7.60809000 
   9.85577000   8.61135000   5.20039000 
   0.77856300   4.46077000   5.97411000 
   7.94841000   0.38103600   2.70304000 
   1.60016000  11.48890000   2.81476000 
   3.93567000   8.71074000   0.92230000 
   7.52800000   2.63745000   1.75524000 
   0.24720200   9.10223000   9.69667000 
   2.33610000   0.21186400   2.01537000 
   8.91727000   1.19176000   8.55875000 
   6.41792000   4.28224000   8.68241000 
   3.20436000   4.65017000   5.15156000 
   0.88241700   4.01393000   9.20934000 
   6.23217000  10.43810000   6.68613000 
   7.17882000   2.89496000   6.26135000 
  11.95920000   5.80798000  10.43780000 
   8.67993000  11.46240000   0.84797100 
   7.62528000   6.87850000  10.62500000 
   3.05861000   5.87725000   3.47303000 
  10.36920000   2.89668000   2.99023000 
   4.82072000   1.61977000   3.41751000 
   4.22795000   3.39426000   1.41819000 
   0.07705030   9.67105000   1.39412000 
   0.94979600   4.04976000   0.53041200 
  11.93450000   2.54541000   6.03063000 
   6.12018000   3.10954000  10.61020000 
   7.08767000   7.03071000   1.50036000 
   9.18457000   1.92115000   3.51864000 
   8.98736000   8.65790000   1.60372000 
   9.20167000   9.34146000  11.89660000 
   9.84336000   4.00582000   8.81799000 
   4.00668000   5.95311000   5.20248000 
   8.49919000   9.82597000   8.28433000 
  10.39020000   9.04699000   1.60110000 
   6.64286000   8.55042000   1.46200000 
   9.55596000   7.52711000   6.34356000 
   2.80100000   5.02985000   8.68554000 
   3.51880000   4.51859000  10.60370000 
   2.68673000   0.05071560   9.50876000 
   7.42615000   1.60537000   8.05271000 
  11.39730000   9.54027000   5.84511000 
   6.03009000   2.46289000   7.12437000 
  11.01230000   1.75173000   7.62844000 
   5.13480000   8.24130000  10.15890000 
   2.67095000   6.78464000   6.57152000 
   7.45588000  10.03270000   9.52192000 
  10.89530000   7.18531000   7.70016000 
   2.64123000  12.20470000   6.17727000 
   5.68488000   9.43494000   5.71711000 
   3.34334000  11.59380000   8.36803000 
   3.78863000   2.10456000   7.73057000 
   7.09878000   1.09841000   3.85843000 
   3.16335000  10.80700000  10.79330000 
   3.96896000  10.36750000  11.96120000 
   0.79225700   0.27205300  10.45450000 
   8.70599000  11.74800000   7.14501000 
   1.54238000   3.49230000   7.87574000 
   1.08733000   5.04948000   1.53309000 
   9.40980000   7.81772000   9.98525000 
   6.13140000   4.58181000   5.08814000 
   3.25469000   6.55760000   8.80927000 
   0.26368800   7.20674000   2.60535000 
   3.91989000   4.15238000   0.06645520 
   3.20124000   0.34794100   0.04506170 
  11.34990000   4.55661000   9.91868000 
   4.48439000   1.02462000   8.51632000 
   0.38666700   9.74768000  12.27980000 
  10.85730000   0.60557500   8.77028000 
  10.38050000  10.28440000  11.87070000 
   5.77783000   8.85968000   8.97247000 
   6.16079000  10.64500000   0.80651200 
   8.93460000  10.43030000   1.86091000 
   1.30478000   8.54482000   6.47548000 
   3.55412000   7.58963000   2.05790000 
   6.39863000  10.28290000  11.68350000 
   9.16267000   6.88018000   4.84377000 
   9.19332000  10.69980000   6.22546000 
   3.54046000   5.32551000   2.12990000 
  11.52150000   6.01111000   0.01952800 
   8.80821000   4.79005000   4.51966000 
   4.66068000   9.91795000   2.63469000 
   1.73909000   3.38315000   5.26865000 
   1.04023000   1.58241000   9.68252000 
   9.57965000   4.14420000   1.05067000 
   5.76443000   3.59723000   3.95977000 
   3.55813000  10.97410000   6.38523000 
  10.85120000  10.68940000   4.97201000 
  10.97630000   0.35618200   3.87972000 
   2.03944000   0.54022200   4.53879000 
   3.42816000   8.06493000   6.92827000 
   1.69659000   3.02780000   2.94943000 
  10.13570000   2.24095000   9.93489000 
   3.24282000   2.64726000   3.25327000 
   5.00085000   4.88644000   8.89516000 
   9.88859000   6.88998000  11.05740000 
  10.01610000   5.36441000   3.62100000 
  11.10970000   4.35552000   1.46165000 
  12.10260000   6.52765000   4.99974000 
  10.03570000  11.18900000   9.91481000 
   7.73921000   8.71154000   4.84297000 
   5.66694000  12.27310000   5.48937000 
   2.59826000   1.89637000   5.15794000 
   5.60056000  11.95850000  10.27850000 
   6.83957000   8.23885000   3.68321000 
   6.27832000   6.10014000  10.08570000 
  12.21240000  10.89030000   3.50057000 
  11.33300000   5.50424000   5.71056000 
   1.32776000   7.67837000   3.58572000 
   6.41887000   7.12682000   5.53667000 
   3.15792000   1.85334000  12.07620000 
   0.39491600   9.43866000   3.31741000 
   7.07341000  12.17680000   9.71188000 
   5.96594000  10.20530000   3.59366000 
   0.12059200   9.30192000   8.14505000 
   4.22972000   1.50610000   2.07577000 
   6.75817000   6.12374000  11.70690000 
   7.18034000   4.55219000   0.60721300 
  10.37470000   2.52618000   5.58948000 
  10.36110000  11.76780000   2.92738000 
   7.65958000   2.92959000   0.12609600 
   5.76937000   5.19922000   0.72062400 
   9.74906000   6.30343000   7.93634000 
   2.79212000   3.24236000  10.52350000 
  11.41410000  10.79180000   9.28064000 
   8.78344000   2.84843000  10.63260000 
  11.89400000   7.51533000  12.18480000 
   1.13881000  10.07910000   6.30661000 
   5.36543000  12.14440000   4.02662000 
   6.42361000   1.58031000  10.51840000 
   6.17421000   6.27772000   6.87176000 
   3.63690000   3.61116000  10.90180000 
   7.82846000   9.41013000   8.89475000 
   9.97633000   2.43517000   3.83060000 
   2.33110000  12.13090000   2.82015000 
   9.90248000   7.29230000   7.83414000 
   9.53429000   5.46132000   4.43824000 
   5.58461000   0.39812500   4.66354000 
  11.36990000   6.78384000  11.87440000 
   5.23969000   8.11759000   9.18708000 
   6.68793000   2.40044000  11.01990000 
   4.61295000   2.21655000   2.69248000 
   5.32901000  10.60280000   2.88907000 
  12.13650000   9.50736000   8.98661000 
   6.70391000   6.65029000  10.85420000 
   5.82965000   4.65621000   9.35389000 
   7.91973000   0.84039800   8.38303000 
   3.03285000  10.54010000  11.74740000 
   3.14340000   6.13125000   2.52626000 
  10.78620000  11.81240000   3.80271000 
  10.56550000   9.77319000   5.40309000 
   2.72678000  11.33690000   6.68063000 
   3.03203000   1.22651000   0.40985300 
   9.40824000  10.33100000  11.87300000 
   3.13660000   5.58896000   5.25602000 
   1.61314000   3.35066000   8.82159000 
  10.16090000   4.56697000   8.12800000 
   5.83900000  10.08850000   0.06423030 
  11.00690000   2.57908000   6.34714000 
  10.86520000  11.52430000   9.58845000 
   3.35243000   5.63976000   9.16066000 
   1.45859000   0.95233100  10.35180000 
  10.61870000   1.49905000   8.51603000 
   4.20357000   4.27636000   1.01587000 
   4.65658000   1.78492000   7.92931000 
   6.89772000   2.84244000   7.19417000 
   0.59814000   9.28115000   6.44711000 
   6.49512000   3.77489000   4.59131000 
   7.99088000   3.17544000   0.98216500 
   9.72249000   3.00690000  10.43290000 
   5.94715000   6.35522000   5.93052000 
   2.24453000   1.00828000   5.35321000 
  12.18090000   4.91776000  10.10210000 
   0.46146900  10.30990000   3.02024000 
   5.43099000  10.21880000   6.19667000 
   2.40408000   3.17238000   3.64764000 
   8.47933000  10.87870000   6.81511000 
   1.25109000   3.66798000   6.11384000 
   7.19657000   7.88777000   1.96134000 
  10.14960000   4.51286000   1.71834000 
   0.35501700   7.70247000   3.45236000 
   3.49620000  12.09750000   9.16632000 
   9.64341000   9.02036000   2.21494000 
   8.58832000  11.35790000   1.80675000 
   9.10727000   7.00085000  10.48210000 
   6.70441000   5.45047000   0.58932500 
   6.76386000   8.52336000   4.61216000 
   3.81926000   8.51569000   1.84884000 
  12.14640000   5.97009000   5.75708000 
   2.55952000   7.63715000   7.01161000 
   0.47065800   4.36130000   1.34141000 
   7.70737000   1.31477000   3.11078000 
   9.21914000   7.73777000   5.40446000 
   6.52743000  11.75220000  10.35310000 
  12.10150000   9.53975000   0.48559700 
