POSCAR file H2O
1.0
  12.40000000   0.00000000   0.00000000 
   0.00000000  12.40000000   0.00000000 
   0.00000000   0.00000000  12.40000000 
H O
   126    64 
Cartesian
   6.72319000  11.99440000  10.24110000 
   1.02046000  11.44480000   3.02863000 
  11.98860000   3.67572000   8.00027000 
  11.18430000   1.55288000   8.40289000 
   0.05674860  11.43010000  10.39160000 
   1.42239000   7.17770000   9.07795000 
   5.13849000   8.38637000  10.58180000 
   0.79404400   8.39477000  11.51710000 
   8.32007000   7.32081000   9.95220000 
  11.13900000  12.34180000   9.99595000 
   9.16320000  10.43690000   1.12161000 
  10.34090000   2.84822000   2.38100000 
   9.11019000   0.43009500   8.93872000 
   1.22300000   5.75666000   8.46393000 
   5.13305000   9.06807000   2.09302000 
   6.18988000   4.38273000   1.13795000 
  11.80050000   1.44495000   0.86177700 
   1.38331000   3.62154000  10.35890000 
   4.13528000   4.27013000   1.11122000 
   6.56695000   4.10359000  10.44790000 
   8.30652000  11.94770000   8.09082000 
   6.63064000   2.12353000   6.57430000 
  11.45900000   9.32495000   0.62848700 
   4.44495000   5.39637000   4.30537000 
  11.81930000   4.59437000   9.32822000 
   3.10227000   2.54345000   8.29523000 
   4.59135000  10.82540000   6.94046000 
   2.83695000   0.13021000   0.01052010 
   8.80116000   1.45455000   5.66615000 
   4.16532000   3.08098000   6.47148000 
  10.72930000   8.01806000   9.08779000 
   0.35373400   1.99127000   2.11855000 
   8.18405000   6.06649000   5.54579000 
  10.48460000   3.31080000  11.57820000 
   1.74697000   2.10605000  11.82710000 
   7.33589000   1.45277000   9.08683000 
   7.59166000   1.35877000   2.73627000 
   3.91175000   6.52394000  12.39550000 
   9.53135000   4.86612000   6.91323000 
   1.77658000   9.71875000  10.08670000 
   7.57525000   5.26116000   8.14018000 
   7.62522000   9.13758000   8.47581000 
  10.23410000   5.54722000   5.58956000 
   1.49974000   5.85977000   2.94820000 
   6.83635000   5.51288000   4.87414000 
   3.93461000   6.48099000  10.05690000 
   3.16538000  11.91170000   3.26659000 
   0.75026700   6.32378000   0.49837800 
   7.45731000   7.00104000   3.51889000 
   2.71174000  10.98890000  10.73310000 
   6.28275000   7.92265000   5.50449000 
   0.61363700   3.02095000   5.73671000 
  11.55820000   7.60429000  10.32340000 
   5.79458000  12.19430000   3.79467000 
   9.16526000   3.39328000   1.69041000 
   0.22020800   4.29783000   4.93464000 
   3.46976000   5.74186000   5.30710000 
   9.50861000   9.47023000  11.61200000 
   5.23568000  11.44300000   5.16879000 
   3.49173000   2.00281000   3.56776000 
   1.85731000   1.72559000   1.11396000 
   3.11505000   1.06863000   8.71272000 
  11.05700000   1.88027000   9.94177000 
   2.75582000   3.61231000   5.89892000 
   8.96336000   6.91007000   1.40901000 
   5.60709000   0.35987900   7.11926000 
   3.73270000   6.50073000   1.55966000 
   3.94753000   1.70812000  10.32430000 
   0.01058510   0.95311200   6.83866000 
   4.93804000   8.53724000   5.42087000 
   7.42792000   8.46848000  10.53500000 
  10.69620000   0.66120200   2.86865000 
   6.76086000   5.58041000  10.20320000 
   1.10132000   7.24818000   3.16608000 
   1.33915000  11.02270000   6.69820000 
   2.15863000   0.76009700   3.15981000 
  10.41940000  10.75680000  11.59840000 
   7.72534000   9.96484000   1.81536000 
   7.59485000  12.14920000   2.50810000 
   8.07619000   9.53964000   6.86791000 
   6.18408000  10.58700000   7.04587000 
   4.46476000   2.22017000  11.72700000 
   9.70447000   0.34315800   4.93424000 
   5.38591000  12.28860000  10.99090000 
   1.00193000   9.58259000   3.62325000 
   5.43304000   3.42868000   4.04688000 
   9.88914000  11.74200000   2.65476000 
   5.86741000   1.50224000   8.22886000 
   9.79115000   2.92043000   8.43324000 
   9.92880000   7.55487000   0.26748600 
  10.22040000   4.55841000   3.71620000 
   4.23068000   4.75005000   8.49661000 
   8.53802000   4.07850000  11.82980000 
   3.31736000   2.96726000   1.20541000 
  11.16240000   5.75288000   3.57079000 
   6.42486000   4.22476000   2.99103000 
   4.59048000  10.08750000   3.73719000 
   6.18305000   2.08729000   9.94472000 
   5.80882000   9.81563000  10.75330000 
   5.67021000   5.00861000   8.88630000 
  11.77530000  11.22790000   3.05704000 
   1.16888000  11.88080000   5.38830000 
   4.68739000   1.44043000   4.44498000 
  12.13220000   8.11228000   1.36421000 
   0.17716600   8.33131000   6.52715000 
   1.44401000   8.68569000   4.77329000 
   1.27016000   4.75593000  11.51050000 
   3.48532000  11.31560000   0.59270700 
   3.06621000  10.33260000   8.54238000 
   0.75165700   6.77682000  11.31330000 
   3.23056000   9.29407000   3.55042000 
   8.47379000   2.96954000   7.40284000 
  11.07020000   1.50164000   6.50655000 
  12.11190000   3.31040000  11.41550000 
   6.89326000   5.47287000   2.02689000 
   2.48157000   9.63912000   7.25805000 
  10.42230000  11.16290000   6.44234000 
   5.69784000   8.71566000   0.54932500 
   9.51223000   5.09696000   0.27731300 
   9.71709000  10.22760000   5.37599000 
   2.91988000   7.53797000  10.59920000 
   1.94861000   2.88283000   3.05914000 
   1.46986000   7.57110000   7.11967000 
   6.91241000   7.47407000   2.02409000 
   7.02493000   3.11405000   5.44200000 
   7.13624000   6.67556000   7.49511000 
   7.17341000   4.77812000  10.67600000 
   4.71241000   1.56582000  11.01850000 
   7.23026000   6.13851000   8.29498000 
   1.82761000   6.57415000   8.39687000 
   1.54601000   3.78779000  11.31540000 
   8.51562000  10.70690000   1.91729000 
   5.09964000  11.67090000   4.19259000 
   0.55951800   6.07629000  11.99330000 
  11.29700000   2.71427000  11.27880000 
   7.47825000   6.83154000   2.52162000 
   4.25049000   2.24576000   4.10194000 
  12.28500000   8.79071000   0.67772000 
  10.39130000  12.31610000   3.32238000 
   5.84847000   8.70636000   5.74647000 
   1.56875000   8.80407000   3.79628000 
   3.37173000   3.60856000   6.64916000 
   5.46406000   1.35292000   7.31529000 
   2.95771000   1.98072000   9.02189000 
   4.09488000   9.45332000   3.10544000 
  10.83540000   7.29746000   9.72958000 
   7.61071000   9.83198000   7.71564000 
   8.12891000   0.21147900   8.74183000 
   9.39908000   3.05199000   2.56314000 
   7.26233000   6.31850000   5.20438000 
   9.29315000   4.20099000   0.03037320 
   6.11679000   4.10047000   3.95801000 
   2.19007000  10.61880000   9.95895000 
   0.75533700   6.43351000   2.79892000 
   9.88860000  10.18700000  12.18040000 
   9.90909000   7.05407000   1.09365000 
   0.98729800   3.77270000   5.21040000 
   5.93512000   9.04566000   1.42995000 
   4.07606000   5.93906000   0.78546400 
   0.21195700  10.78050000   3.02381000 
  10.15010000  10.23260000   6.22783000 
   4.74126000   5.08776000   9.24970000 
   6.78977000   2.29558000   9.21510000 
   3.70928000   5.97759000   4.41371000 
  10.47730000   1.63807000   9.18628000 
   0.06876300   4.18200000   8.67822000 
   5.96052000   8.88326000  10.93870000 
  11.89930000   1.74980000   6.89587000 
   1.11341000   7.97053000  10.72950000 
  11.82630000   1.75687000   1.79939000 
   9.63390000   5.64454000   6.31057000 
   3.28733000  10.23380000   7.53538000 
   1.13038000   8.25232000   6.54969000 
   2.03998000   2.07706000   2.49777000 
   2.29845000  12.21510000   3.56765000 
   9.26159000   3.42912000   7.79295000 
   3.85773000   7.37980000  10.43080000 
   7.21178000   0.55186200   3.04286000 
   0.82397300  11.68180000   6.24112000 
   5.50903000  11.20090000   6.69340000 
  11.57580000  11.75090000  10.63930000 
   8.25810000   8.23126000  10.10150000 
   5.94315000  11.53820000  10.66900000 
   4.13082000   3.34063000   0.97676000 
   6.98492000   4.59428000   1.60746000 
   1.76077000   1.42776000   0.16938300 
   9.59271000   0.89113800   5.80864000 
   3.29036000  11.71080000  12.13010000 
   7.40006000   2.64536000   6.25866000 
  10.78370000   5.15401000   4.18766000 
